85
3 2 50 90 
1 63 
1 114 
3 98 20 29 
1 32 
1 6 
1 115 
1 84 
1 44 
1 13 
1 48 
1 97 
1 96 
2 9 110 
1 41 
3 5 43 80 
1 26 
1 48 
1 15 
1 10 
3 100 89 94 
2 8 3 
1 63 
1 25 
1 118 
2 91 74 
1 75 
1 112 
1 44 
1 81 
2 70 110 
1 99 
3 37 21 56 
1 69 
2 40 20 
1 25 
1 93 
2 79 54 
1 85 
1 106 
1 101 
3 18 119 103 
2 37 49 
1 77 
1 52 
3 113 4 42 
1 120 
1 67 
1 82 
2 76 1 
2 113 30 
2 24 73 
1 55 
1 107 
3 94 30 91 
1 28 
1 117 
1 104 
1 116 
1 19 
2 65 31 
1 87 
1 95 
2 59 17 
1 114 
1 116 
3 83 12 89 
1 10 
1 81 
2 111 102 
1 85 
1 14 
1 23 
1 27 
2 78 27 
1 22 
1 67 
1 16 
2 23 66 
1 59 
1 120 
1 26 
1 92 
2 72 74 
1 62 
